
<<< setup


<<< generate

CPXPARAM_Simplex_Tolerances_Optimality           0.001
CPXPARAM_Simplex_Tolerances_Feasibility          0.001
CPXPARAM_TimeLimit                               3600
CPXPARAM_Threads                                 8
CPXPARAM_MIP_Tolerances_AbsMIPGap                0.001
CPXPARAM_MIP_Tolerances_MIPGap                   0.001
CPXPARAM_MIP_Tolerances_Integrality              0.001
CPXPARAM_MIP_Display                             4
CPXPARAM_MIP_PolishAfter_Solutions               1
Tried aggregator 1 time.
MIQCP Presolve eliminated 2 rows and 2 columns.
Reduced MIQCP has 71 rows, 263 columns, and 2349 nonzeros.
Reduced MIQCP has 0 binaries, 64 generals, 0 SOSs, and 0 indicators.
Reduced MIQCP has 4 quadratic constraints.
Presolve time = 0.00 sec. (1.29 ticks)
MIP emphasis: balance optimality and feasibility.
MIP search method: dynamic search.
Parallel mode: deterministic, using up to 8 threads.
Dual infeasible due to empty column 'x(2)'.
Presolve time = 0.00 sec. (0.10 ticks)
Tried aggregator 1 time.
LP Presolve eliminated 67 rows and 67 columns.
Aggregator did 2 substitutions.
Reduced LP has 2 rows, 194 columns, and 130 nonzeros.
Presolve time = 0.00 sec. (0.14 ticks)
Initializing dual steep norms . . .

Iteration log . . .
Iteration:     1    Scaled infeas =             0.000000
Root relaxation solution time = 0.00 sec. (0.41 ticks)

        Nodes                                         Cuts/
   Node  Left     Objective  IInf  Best Integer    Best Bound    ItCnt     Gap

      0     0      741.6055    64                    741.6055       15         
*     0+    0                          795.5909      741.6055             6.79%
Found incumbent of value 795.590914 after 0.05 sec. (10.69 ticks)

Starting condition for polishing reached (PolishAfterIntSol).
Starting solution polishing.

      0     2      741.6055    64      795.5909      741.6055       29    6.79%
Elapsed time = 0.06 sec. (18.31 ticks, tree = 0.01 MB, solutions = 1)
*     1+    1                          792.8913      741.6055             6.47%
Found incumbent of value 792.891287 after 0.28 sec. (37.29 ticks)
*     1+    1                          790.9212      741.6055             6.24%
Found incumbent of value 790.921171 after 0.41 sec. (548.47 ticks)
*     1+    1                          782.8223      741.6055             5.27%
Found incumbent of value 782.822341 after 0.47 sec. (952.72 ticks)
*     1+    1                          777.5834      741.6055             4.63%
Found incumbent of value 777.583384 after 0.52 sec. (1055.47 ticks)
*     1+    1                          777.2290      741.6055             4.58%
Found incumbent of value 777.228980 after 0.75 sec. (1607.31 ticks)
*     1+    1                          776.7712      741.6055             4.53%
Found incumbent of value 776.771167 after 1.16 sec. (2573.19 ticks)
*     1+    1                          776.3043      741.6055             4.47%
Found incumbent of value 776.304263 after 2.63 sec. (5936.67 ticks)
*     1+    1                          775.9811      741.6055             4.43%
Found incumbent of value 775.981130 after 3.97 sec. (9012.37 ticks)
*     1+    1                          775.7972      741.6055             4.41%
Found incumbent of value 775.797177 after 4.34 sec. (9400.58 ticks)
*     1+    1                          775.7969      741.6055             4.41%
Found incumbent of value 775.796852 after 4.50 sec. (9544.18 ticks)
*     1+    1                          775.7782      741.6055             4.40%
Found incumbent of value 775.778157 after 4.53 sec. (9567.84 ticks)
*     1+    1                          775.7052      741.6055             4.40%
Found incumbent of value 775.705227 after 4.55 sec. (9587.04 ticks)
*     1+    1                          775.6445      741.6055             4.39%
Found incumbent of value 775.644519 after 4.56 sec. (9607.17 ticks)
*     1+    1                          775.5169      741.6055             4.37%
Found incumbent of value 775.516901 after 4.58 sec. (9608.84 ticks)
*     1+    1                          775.3442      741.6055             4.35%
Found incumbent of value 775.344234 after 4.91 sec. (9991.78 ticks)
*     1+    1                          775.2852      741.6055             4.34%
Found incumbent of value 775.285246 after 45.58 sec. (18000.51 ticks)
      1     3      741.8104    63      775.2852      741.6055       45    4.34%
*     2+    2                          775.2814      741.6055             4.34%
Found incumbent of value 775.281413 after 62.16 sec. (124962.54 ticks)
*     2+    2                          775.2814      741.6055             4.34%
Found incumbent of value 775.281402 after 62.73 sec. (125542.50 ticks)
*     2+    2                          775.1985      741.6055             4.33%
Found incumbent of value 775.198531 after 65.06 sec. (129965.19 ticks)
      2     3      741.7349    63      775.1985      741.6055       45    4.33%
*     3+    3                          775.1318      741.7349             4.31%
Found incumbent of value 775.131825 after 80.27 sec. (144399.70 ticks)
      3     4      741.9357    62      775.1318      741.7349       63    4.31%
      4     4      742.0510    62      775.1318      741.7349       61    4.31%
      5     5      742.3112    62      775.1318      741.7349       77    4.31%
*     6+    5                          775.0550      741.7349             4.30%
Found incumbent of value 775.055007 after 110.92 sec. (201432.23 ticks)
*     6+    5                          774.9853      741.7349             4.29%
Found incumbent of value 774.985279 after 114.11 sec. (205621.64 ticks)
      6     5      742.9034    62      774.9853      741.7349       81    4.29%
      7     6      742.5005    61      774.9853      741.7349      101    4.29%
      8     6      743.2322    61      774.9853      741.7349       97    4.29%
      9     7      743.1943    61      774.9853      741.9357      117    4.26%
     10     8      742.8465    61      774.9853      741.9357      127    4.26%
Elapsed time = 176.70 sec. (276287.22 ticks, tree = 0.01 MB, solutions = 36)
     11     7      742.6783    61      774.9853      741.9357      111    4.26%
     12     8      743.5193    61      774.9853      741.9357      127    4.26%
     13     9      744.1335    61      774.9853      742.0510      151    4.25%
*    14+   10                          774.9851      742.0510             4.25%
Found incumbent of value 774.985130 after 222.91 sec. (306689.37 ticks)
     14    10      743.0175    60      774.9851      742.0510      174    4.25%
     15     9      743.5083    61      774.9851      742.0510      149    4.25%
     16    13      744.0637    60      774.9851      742.0510      230    4.25%
     17    12      743.7585    60      774.9851      742.0510      209    4.25%
     18    11      743.8681    60      774.9851      742.0510      190    4.25%
     19    15      744.7572    60      774.9851      742.5005      258    4.19%
     20    17      743.5265    59      774.9851      742.5005      299    4.19%
Elapsed time = 272.33 sec. (377327.89 ticks, tree = 0.01 MB, solutions = 40)
*    21+   21                          774.9694      742.5005             4.19%
Found incumbent of value 774.969357 after 281.73 sec. (387336.20 ticks)
     21    14      743.2340    60      774.9694      742.5005      241    4.19%
     22    16      744.5990    60      774.9694      742.5005      277    4.19%
*    23+   21                          774.8274      742.5005             4.17%
Found incumbent of value 774.827411 after 301.19 sec. (410070.13 ticks)
     23    19      744.6407    59      774.8274      742.5005      338    4.17%
     25    20      744.2714    59      774.8274      742.5005      351    4.17%
     26    21      744.3580    59      774.8274      742.5005      378    4.17%
     27    23      744.0233    58      774.8274      742.5005      407    4.17%
     28    22      745.2126    59      774.8274      742.5005      395    4.17%
     29    24      743.7541    59      774.8274      742.5005      423    4.17%
     30    26      745.1606    58      774.8274      742.5005      456    4.17%
     31    25      745.0503    59      774.8274      742.5005      443    4.17%
Elapsed time = 394.58 sec. (503308.94 ticks, tree = 0.01 MB, solutions = 43)
     32    29      744.8232    58      774.8274      742.5005      512    4.17%
     33    30      744.5103    57      774.8274      742.5005      528    4.17%
     34    28      744.7566    58      774.8274      742.5005      488    4.17%
     36    31      745.6700    58      774.8274      742.5005      547    4.17%
     37    32      744.2586    58      774.8274      742.5005      572    4.17%
     38    33      745.6594    57      774.8274      742.5005      584    4.17%
     39    35      745.2929    57      774.8274      742.5005      625    4.17%
     40    36      745.3578    57      774.8274      742.5005      637    4.17%
     41    34      745.5034    58      774.8274      742.5005      602    4.17%
     42    37      745.2299    57      774.8274      742.5005      660    4.17%
Elapsed time = 496.30 sec. (625043.25 ticks, tree = 0.01 MB, solutions = 43)
     43    38      744.6360    58      774.8274      742.5005      676    4.17%
     44    39      746.1230    57      774.8274      742.5005      691    4.17%
     45    40      745.0117    58      774.8274      742.5005      717    4.17%
     46    43      744.9947    56      774.8274      742.5005      767    4.17%
     48    42      745.7595    56      774.8274      742.5005      755    4.17%
     49    44      745.9596    57      774.8274      742.5005      775    4.17%
     50    46      745.1297    57      774.8274      742.5005      816    4.17%
     51    45      745.6992    56      774.8274      742.5005      803    4.17%
     52    48      744.7645    57      774.8274      742.5005      855    4.17%
     53    47      746.5869    56      774.8274      742.5005      832    4.17%
Elapsed time = 615.67 sec. (746325.51 ticks, tree = 0.01 MB, solutions = 43)
     54    49      745.8300    56      774.8274      742.5005      868    4.17%
     55    50      746.6609    55      774.8274      742.5005      896    4.17%
     56    51      746.2255    55      774.8274      742.5005      915    4.17%
     57    53      745.6337    56      774.8274      742.5005      944    4.17%
     58    52      746.4188    56      774.8274      742.5005      926    4.17%
     59    56      747.0606    55      774.8274      742.5005     1006    4.17%
     62    59      746.6986    54      774.8274      742.5005     1052    4.17%
     64    60      746.1342    55      774.8274      742.5005     1070    4.17%
     65    58      747.1648    54      774.8274      742.5005     1041    4.17%
     66    61      746.8948    55      774.8274      742.5005     1088    4.17%
Elapsed time = 735.67 sec. (885045.44 ticks, tree = 0.01 MB, solutions = 43)
     67    62      747.5294    54      774.8274      742.5005     1107    4.17%
     68    63      745.2759    56      774.8274      742.5005     1125    4.17%
     69    64      746.6631    54      774.8274      742.5005     1144    4.17%
     70    66      746.2769    55      774.8274      742.5005     1171    4.17%
     71    65      747.1765    53      774.8274      742.5005     1155    4.17%
     72    67      746.6517    54      774.8274      742.5005     1193    4.17%
     73    68      747.6735    53      774.8274      742.5005     1214    4.17%
     75    70      748.0055    53      774.8274      742.5005     1257    4.17%
     77    73      746.0022    54      774.8274      742.5005     1314    4.17%
     78    72      747.1591    53      774.8274      742.5005     1299    4.17%
Elapsed time = 844.86 sec. (997064.35 ticks, tree = 0.02 MB, solutions = 43)
     79    74      747.6688    52      774.8274      742.5005     1329    4.17%
     80    76      748.2031    52      774.8274      742.5005     1369    4.17%
     81    77      747.8406    53      774.8274      742.5005     1386    4.17%
     82    75      747.3595    54      774.8274      742.5005     1348    4.17%
     83    79      745.7950    55      774.8274      742.5005     1426    4.17%
     84    78      748.4877    52      774.8274      742.5005     1402    4.17%
     85    81      747.6597    52      774.8274      742.5005     1467    4.17%
     86    80      746.7223    54      774.8274      742.5005     1448    4.17%
     88    83      748.7218    51      774.8274      742.5005     1501    4.17%
     89    84      748.3216    52      774.8274      742.5005     1520    4.17%
Elapsed time = 966.97 sec. (1123271.51 ticks, tree = 0.02 MB, solutions = 43)
     90    86      746.4521    55      774.8274      742.5005     1562    4.17%
     91    85      747.1586    53      774.8274      742.5005     1543    4.17%
     92    87      748.9883    51      774.8274      742.5005     1576    4.17%
     93    89      746.5046    53      774.8274      742.5005     1615    4.17%
     95    88      748.1605    51      774.8274      742.5005     1592    4.17%
     96    92      748.8221    51      774.8274      742.5005     1661    4.17%
     97    91      749.8470    50      774.8274      742.5005     1647    4.17%
     98    97      749.1590    49      774.8274      742.5005     1755    4.17%
     99    98      748.6821    50      774.8274      742.5005     1767    4.17%
    100    96      747.2280    53      774.8274      742.5005     1740    4.17%
Elapsed time = 1064.17 sec. (1231926.52 ticks, tree = 0.02 MB, solutions = 43)
    101    94      747.6829    52      774.8274      742.5005     1703    4.17%
    102    95      749.4795    50      774.8274      742.5005     1726    4.17%
    104   100      749.2435    50      774.8274      742.5005     1807    4.17%
    105    99      749.3130    50      774.8274      742.5005     1794    4.17%
    106   102      749.3554    50      774.8274      742.5005     1841    4.17%
    107   101      749.6765    48      774.8274      742.5005     1827    4.17%
    108   103      747.0279    52      774.8274      742.5005     1858    4.17%
    109   104      748.3300    52      774.8274      742.5005     1878    4.17%
    110   106      746.9244    54      774.8274      742.5005     1918    4.17%
    112   109      749.2071    49      774.8274      742.5005     1976    4.17%
Elapsed time = 1167.36 sec. (1358749.38 ticks, tree = 0.02 MB, solutions = 43)
    113   112      748.2071    51      774.8274      742.5005     2030    4.17%
    115   110      750.1997    47      774.8274      742.5005     1995    4.17%
    117   108      749.8249    49      774.8274      742.5005     1954    4.17%
    118   114      750.5075    48      774.8274      742.5005     2066    4.17%
    120   115      749.8476    49      774.8274      742.5005     2082    4.17%
    121   119      747.5548    51      774.8274      742.5005     2153    4.17%
    122   116      748.8312    51      774.8274      742.5005     2102    4.17%
    123   118      750.7470    46      774.8274      742.5005     2143    4.17%
    124   117      749.7868    49      774.8274      742.5005     2123    4.17%
    125   120      750.3410    48      774.8274      742.5005     2171    4.17%
Elapsed time = 1281.97 sec. (1481382.91 ticks, tree = 0.02 MB, solutions = 43)
    127   122      747.4505    53      774.8274      742.5005     2217    4.17%
    128   123      749.7551    48      774.8274      742.5005     2223    4.17%
    129   124      748.1743    51      774.8274      742.5005     2237    4.17%
    130   125      748.7524    50      774.8274      742.5005     2262    4.17%
    132   128      750.8801    47      774.8274      742.5005     2307    4.17%
    133   127      750.8330    48      774.8274      742.5005     2290    4.17%
    134   129      752.2102    46      774.8274      742.5005     2323    4.17%
    135   131      750.3172    48      774.8274      742.5005     2374    4.17%
    136   134      751.8757    45      774.8274      742.5005     2434    4.17%
    138   130      747.4010    52      774.8274      742.5005     2350    4.17%
Elapsed time = 1414.30 sec. (1622279.40 ticks, tree = 0.03 MB, solutions = 43)
    140   137      751.5634    46      774.8274      742.5005     2488    4.17%
    141   136      750.3340    48      774.8274      742.5005     2467    4.17%
    142   135      752.0453    46      774.8274      742.5005     2449    4.17%
    143   138      750.2896    47      774.8274      742.5005     2503    4.17%
    145   143      752.6798    45      774.8274      742.5005     2594    4.17%
    147   142      748.6484    50      774.8274      742.5005     2577    4.17%
    148   144      751.3259    47      774.8274      742.5005     2612    4.17%
    149   141      747.9515    52      774.8274      742.5005     2554    4.17%
    150   147      752.3584    44      774.8274      742.5005     2665    4.17%
    152   148      752.0959    45      774.8274      742.5005     2681    4.17%
Elapsed time = 1559.23 sec. (1768986.29 ticks, tree = 0.03 MB, solutions = 43)
    154   151      750.9063    47      774.8274      742.5005     2740    4.17%
    155   149      749.8404    49      774.8274      742.5005     2700    4.17%
    157   153      751.8110    44      774.8274      742.5005     2774    4.17%
    158   152      747.9602    51      774.8274      742.5005     2754    4.17%
    159   156      750.8240    46      774.8274      742.5005     2827    4.17%
    160   157      751.4630    46      774.8274      742.5005     2845    4.17%
    162   154      752.5042    45      774.8274      742.5005     2792    4.17%
    163   158      749.8449    48      774.8274      742.5005     2873    4.17%
    165   159      749.1933    49      774.8274      742.5005     2887    4.17%
    166   161      748.4381    51      774.8274      742.5005     2917    4.17%
Elapsed time = 1699.64 sec. (1893222.86 ticks, tree = 0.03 MB, solutions = 43)
    167   162      751.3670    46      774.8274      742.5005     2939    4.17%
    168   165      751.9337    45      774.8274      742.5005     2987    4.17%
    169   164      752.6399    44      774.8274      742.5005     2973    4.17%
    172   169      748.5077    50      774.8274      742.5005     3063    4.17%
    174   167      752.3725    43      774.8274      742.5005     3027    4.17%
    175   171      752.4751    44      774.8274      742.5005     3097    4.17%
    177   173      750.4085    47      774.8274      742.5005     3134    4.17%
    180   174      752.0381    45      774.8274      742.5005     3151    4.17%
    183   178      753.0395    43      774.8274      742.5005     3229    4.17%
    184   179      751.3699    45      774.8274      742.5005     3241    4.17%
Elapsed time = 1869.56 sec. (2118981.95 ticks, tree = 0.04 MB, solutions = 43)
    185   184      749.7575    47      774.8274      742.5005     3336    4.17%
    187   182      749.0793    49      774.8274      742.5005     3302    4.17%
    189   180      750.8489    47      774.8274      742.5005     3260    4.17%
    191   186      753.5990    42      774.8274      742.5005     3369    4.17%
    192   189      752.9405    44      774.8274      742.5005     3426    4.17%
    193   187      751.9374    44      774.8274      742.5005     3387    4.17%
    196   188      750.2100    47      774.8274      742.5005     3408    4.17%
    197   191      753.7667    42      774.8274      742.5005     3465    4.17%
    198   192      750.9991    46      774.8274      742.5005     3477    4.17%
    199   194      754.5382    41      774.8274      742.5005     3519    4.17%
Elapsed time = 2013.05 sec. (2242921.10 ticks, tree = 0.04 MB, solutions = 43)
    200   199      750.3101    46      774.8274      742.5005     3622    4.17%
    201   195      753.2434    43      774.8274      742.5005     3540    4.17%
    203   197      753.9070    41      774.8274      742.5005     3578    4.17%
    205   202      754.1865    41      774.8274      742.5005     3670    4.17%
    207   200      754.7053    41      774.8274      742.5005     3644    4.17%
    208   205      752.5144    43      774.8274      742.5005     3728    4.17%
    210   206      754.5170    40      774.8274      742.5005     3740    4.17%
    212   209      751.5639    45      774.8274      742.5005     3788    4.17%
    215   210      754.3543    41      774.8274      742.5005     3809    4.17%
    216   212      754.0889    42      774.8274      742.5005     3851    4.17%
Elapsed time = 2149.95 sec. (2427611.46 ticks, tree = 0.05 MB, solutions = 43)
    218   211      752.8879    43      774.8274      742.5005     3837    4.17%
    219   214      750.8847    45      774.8274      742.5005     3882    4.17%
    221   215      751.9526    45      774.8274      742.5005     3898    4.17%
    222   218      755.2548    40      774.8274      742.5005     3955    4.17%
    224   221      753.0882    42      774.8274      742.5005     4020    4.17%
    227   220      755.1049    39      774.8274      742.5005     3994    4.17%
    228   224      752.1463    44      774.8274      742.5005     4067    4.17%
    229   223      750.5502    47      774.8274      742.5005     4052    4.17%
    230   226      755.3376    39      774.8274      742.5005     4106    4.17%
    231   225      754.9502    40      774.8274      742.5005     4089    4.17%
Elapsed time = 2290.09 sec. (2569806.67 ticks, tree = 0.05 MB, solutions = 43)
    232   227      753.4415    42      774.8274      742.5005     4126    4.17%
    233   230      755.5506    39      774.8274      742.5005     4181    4.17%
    234   231      752.4741    44      774.8274      742.5005     4195    4.17%
    235   228      751.4692    44      774.8274      742.5005     4142    4.17%
    237   234      755.7863    39      774.8274      742.5005     4253    4.17%
    238   233      755.8518    38      774.8274      742.5005     4235    4.17%
    239   236      755.6725    38      774.8274      742.5005     4291    4.17%
    241   235      753.6913    41      774.8274      742.5005     4275    4.17%
    242   238      751.7943    44      774.8274      742.5005     4325    4.17%
    243   237      752.7424    43      774.8274      742.5005     4306    4.17%
Elapsed time = 2419.05 sec. (2696229.48 ticks, tree = 0.05 MB, solutions = 43)
    244   240      755.5787    39      774.8274      742.5005     4363    4.17%
    246   239      754.4636    41      774.8274      742.5005     4345    4.17%
    247   241      755.5741    38      774.8274      742.5005     4383    4.17%
    248   244      753.9556    41      774.8274      742.5005     4445    4.17%
    249   242      756.2423    38      774.8274      742.5005     4402    4.17%
    250   245      752.0702    43      774.8274      742.5005     4458    4.17%
    251   246      753.0160    43      774.8274      742.5005     4473    4.17%
    252   250      756.1668    37      774.8274      742.5005     4549    4.17%
    254   249      755.2179    40      774.8274      742.5005     4536    4.17%
    255   248      751.4376    45      774.8274      742.5005     4515    4.17%
Elapsed time = 2521.50 sec. (2828945.57 ticks, tree = 0.06 MB, solutions = 43)
    257   252      756.6730    37      774.8274      742.5005     4590    4.17%
    258   253      752.3367    43      774.8274      742.5005     4610    4.17%
    259   254      753.3690    42      774.8274      742.5005     4621    4.17%
    260   256      756.1849    38      774.8274      742.5005     4662    4.17%
    261   259      754.5240    40      774.8274      742.5005     4722    4.17%
    264   258      751.6956    45      774.8274      742.5005     4704    4.17%
    265   260      757.2270    36      774.8274      742.5005     4739    4.17%
    266   261      752.6709    42      774.8274      742.5005     4763    4.17%
    267   263      756.9508    37      774.8274      742.5005     4799    4.17%
    268   267      752.0484    44      774.8274      742.5005     4864    4.17%
Elapsed time = 2646.06 sec. (2964945.61 ticks, tree = 0.06 MB, solutions = 43)
    269   266      755.7918    39      774.8274      742.5005     4847    4.17%
    270   265      756.9820    36      774.8274      742.5005     4829    4.17%
    272   264      754.9467    39      774.8274      742.5005     4809    4.17%
    273   269      752.9123    42      774.8274      742.5005     4901    4.17%
    274   268      757.7522    35      774.8274      742.5005     4880    4.17%
    275   270      756.8252    37      774.8274      742.5005     4926    4.17%
    277   271      752.2565    44      774.8274      742.5005     4934    4.17%
    278   274      753.9830    41      774.8274      742.5005     4989    4.17%
    279   275      755.0734    39      774.8274      742.5005     5009    4.17%
    280   273      756.7931    36      774.8274      742.5005     4971    4.17%
Elapsed time = 2750.92 sec. (3065941.66 ticks, tree = 0.06 MB, solutions = 43)
    281   276      753.3023    41      774.8274      742.5005     5027    4.17%
    282   277      758.2936    34      774.8274      742.5005     5044    4.17%
    283   279      756.4103    38      774.8274      742.5005     5084    4.17%
    284   280      752.6893    43      774.8274      742.5005     5098    4.17%
    285   278      757.5491    36      774.8274      742.5005     5068    4.17%
    286   282      755.5672    38      774.8274      742.5005     5139    4.17%
    287   281      754.1689    41      774.8274      742.5005     5117    4.17%
    289   284      753.4561    41      774.8274      742.5005     5180    4.17%
    290   285      758.8462    33      774.8274      742.5005     5195    4.17%
    291   288      757.4775    36      774.8274      742.5005     5243    4.17%
Elapsed time = 2852.75 sec. (3192383.51 ticks, tree = 0.06 MB, solutions = 43)
    292   287      752.8128    43      774.8274      742.5005     5231    4.17%
    293   286      756.4591    38      774.8274      742.5005     5211    4.17%
    295   291      757.4315    35      774.8274      742.5005     5295    4.17%
    296   290      754.6299    40      774.8274      742.5005     5278    4.17%
    297   294      757.6384    35      774.8274      742.5005     5352    4.17%
    298   292      753.9425    40      774.8274      742.5005     5321    4.17%
    300   295      753.3178    42      774.8274      742.5005     5374    4.17%
    301   296      757.0406    37      774.8274      742.5005     5394    4.17%
    302   297      756.2229    37      774.8274      742.5005     5419    4.17%
    303   298      758.1573    34      774.8274      742.5005     5431    4.17%
Elapsed time = 2968.25 sec. (3314117.82 ticks, tree = 0.08 MB, solutions = 43)
    304   299      754.7245    40      774.8274      742.5005     5446    4.17%
    305   300      758.3681    34      774.8274      742.5005     5465    4.17%
    306   302      759.8484    32      774.8274      742.5005     5507    4.17%
    307   301      754.0525    40      774.8274      742.5005     5489    4.17%
    308   303      753.4421    42      774.8274      742.5005     5526    4.17%
    309   306      758.0818    34      774.8274      742.5005     5588    4.17%
    310   305      756.2731    37      774.8274      742.5005     5566    4.17%
    312   307      755.2863    39      774.8274      742.5005     5603    4.17%
    313   308      758.2873    34      774.8274      742.5005     5621    4.17%
    315   309      760.3951    31      774.8274      742.5005     5639    4.17%
Elapsed time = 3101.23 sec. (3444649.15 ticks, tree = 0.08 MB, solutions = 43)
    316   313      756.8675    36      774.8274      742.5005     5723    4.17%
    317   312      758.7215    33      774.8274      742.5005     5702    4.17%
    319   314      757.6636    36      774.8274      742.5005     5739    4.17%
    320   315      755.3361    39      774.8274      742.5005     5755    4.17%
    321   316      758.9255    33      774.8274      742.5005     5776    4.17%
    323   319      756.9118    36      774.8274      742.5005     5841    4.17%
    324   318      760.9302    30      774.8274      742.5005     5817    4.17%
    325   320      758.7858    33      774.8274      742.5005     5861    4.17%
    326   322      757.7062    36      774.8274      742.5005     5899    4.17%
    328   325      755.2689    38      774.8274      742.5005     5951    4.17%
Elapsed time = 3227.19 sec. (3578241.40 ticks, tree = 0.09 MB, solutions = 43)
    330   324      758.9952    33      774.8274      742.5005     5927    4.17%
    331   326      757.5022    35      774.8274      742.5005     5967    4.17%
    332   327      761.4624    29      774.8274      742.5005     5983    4.17%
    333   331      755.3091    38      774.8274      742.5005     6064    4.17%
    335   329      758.2789    35      774.8274      742.5005     6026    4.17%
    336   328      759.3616    32      774.8274      742.5005     6002    4.17%
    337   332      755.9740    38      774.8274      742.5005     6081    4.17%
    338   333      759.5641    32      774.8274      742.5005     6097    4.17%
    339   336      755.9336    37      774.8274      742.5005     6154    4.17%
    340   337      754.6659    40      774.8274      742.5005     6171    4.17%
Elapsed time = 3325.70 sec. (3704455.03 ticks, tree = 0.09 MB, solutions = 43)
    341   334      757.5389    35      774.8274      742.5005     6120    4.17%
    343   338      758.3196    35      774.8274      742.5005     6186    4.17%
    345   340      756.5698    37      774.8274      742.5005     6222    4.17%
    346   341      759.6008    32      774.8274      742.5005     6234    4.17%
    348   343      755.2590    39      774.8274      742.5005     6276    4.17%
    350   345      762.5572    28      774.8274      742.5005     6316    4.17%
    351   347      759.9627    31      774.8274      742.5005     6345    4.17%
    352   348      756.6118    37      774.8274      742.5005     6364    4.17%
    353   346      758.8881    34      774.8274      742.5005     6338    4.17%
    354   349      760.1877    31      774.8274      742.5005     6381    4.17%
Elapsed time = 3464.52 sec. (3852637.09 ticks, tree = 0.09 MB, solutions = 43)
    356   350      756.6137    36      774.8274      742.5005     6409    4.17%
    357   353      763.0996    27      774.8274      742.5005     6461    4.17%
    359   354      760.0402    31      774.8274      742.5005     6479    4.17%
    360   356      759.4651    33      774.8274      742.5005     6519    4.17%
    361   355      757.2009    36      774.8274      742.5005     6499    4.17%
    363   357      760.2232    31      774.8274      742.5005     6536    4.17%
    364   359      756.6435    36      774.8274      742.5005     6580    4.17%
    365   361      758.7270    33      774.8274      742.5005     6604    4.17%
    366   360      763.6651    26      774.8274      742.5005     6589    4.17%
    367   362      760.5513    30      774.8274      742.5005     6618    4.17%
Elapsed time = 3586.17 sec. (3983010.96 ticks, tree = 0.10 MB, solutions = 43)
    368   363      760.0483    32      774.8274      742.5005     6632    4.17%

Root node processing (before b&c):
  Real time             =    0.06 sec. (10.73 ticks)
Parallel b&c, 8 threads:
  Real time             = 3599.95 sec. (4008205.73 ticks)
  Sync time (average)   =  197.31 sec.
  Wait time (average)   =    0.00 sec.
                          ------------
Total (root+branch&cut) = 3600.02 sec. (4008216.47 ticks)

<<< solve


OBJECTIVE: 774.8274
X*: [-1 4 -4 4 -3 4 -4 4 -3 4 -4 4 -4 4 -4 4 -3 4 -4 4 -4 4 -4 4 -3 4 -4 4 -4 4
     -4 4] Z*: [-1 4 -4 4 -3 4 -4 4 -3 4 -4 4 -4 4 -4 4 -3 4 -4 4 -4 4 -4 4 -3 4 -4 4 -4 4
     -4 4]
f*:774.827411388

<<< post process


<<< done

